
  32    4
  10   10   10   10

   0   0   0   0   0   7 2 7 11 12 13 21 31 
   8   1   0   1   1   3 30 29 3 
   5   3   1   6   0   2 28 4 
   3   0   6   6   2   1 5 
   9   2   3   4   0   3 26 10 6 
   6   0   4   5   5   2 25 8 
   7   4   7   3   0   3 24 23 14 
   3   4   2   0   6   1 9 
   7   2   0   3   4   2 23 14 
   6   3   5   6   0   3 25 24 16 
   4   6   0   4   5   3 27 23 16 
   3   6   3   4   0   2 27 15 
  10   6   4   4   0   2 25 15 
   9   0   3   4   3   1 15 
   1   1   0   1   1   1 16 
   4   4   0   4   5   1 17 
   5   3   1   1   0   1 18 
   1   7   0   4   4   1 19 
   4   5   0   5   5   1 20 
   1   4   3   0   4   1 22 
   2   0   5   4   4   1 24 
   7   5   4   0   4   1 32
  10   5   0   4   7   1 32
   7   2   2   7   0   1 32
   7   6   6   0   6   1 32
   9   5   3   0   4   1 32
   9   4   8   3   0   1 32
   1   4   6   0   2   1 32
   2   0   2   2   4   1 32
  10   0   5   6   4   1 32
  10   0   5   5   4   1 32
   0   0   0   0   0   0 
